results/res_prop_muc/res_Cimatti_mathsat_cores/QF_RDL/fischer3-mutex-14.smt.smt2.res
unsat
( c1006
  c1007
  c1009
  c101
  c1013
  c1014
  c1015
  c1019
  c1022
  c1024
  c1025
  c1027
  c1028
  c103
  c1033
  c1037
  c1039
  c1040
  c1044
  c1045
  c1046
  c1051
  c1052
  c1054
  c1057
  c1060
  c1061
  c1062
  c1063
  c1064
  c1065
  c1066
  c1074
  c1075
  c1077
  c1078
  c108
  c1087
  c1088
  c109
  c1090
  c1095
  c1096
  c1097
  c1100
  c1103
  c1105
  c1106
  c1109
  c1112
  c1113
  c1117
  c1118
  c1119
  c1124
  c1125
  c1127
  c1130
  c1133
  c1134
  c1135
  c1136
  c1137
  c1138
  c1139
  c1147
  c1148
  c1150
  c1157
  c1158
  c116
  c1160
  c1163
  c1167
  c1168
  c1169
  c1173
  c1176
  c1178
  c1179
  c118
  c1181
  c1182
  c1185
  c1187
  c1190
  c1191
  c1192
  c1197
  c1198
  c12
  c1200
  c1203
  c1206
  c1207
  c1208
  c1209
  c1210
  c1211
  c1212
  c1220
  c1221
  c1228
  c1232
  c1236
  c124
  c1240
  c1244
  c1248
  c1249
  c125
  c1250
  c1251
  c1252
  c1255
  c1257
  c1258
  c126
  c1265
  c1267
  c1268
  c1276
  c1277
  c1278
  c1279
  c128
  c1280
  c1281
  c1282
  c1283
  c1284
  c1285
  c1286
  c1287
  c129
  c1291
  c1295
  c1299
  c1303
  c1305
  c1306
  c1307
  c1308
  c1315
  c1316
  c1318
  c1321
  c1325
  c1326
  c1327
  c1331
  c1334
  c1336
  c1337
  c1339
  c1340
  c1345
  c1349
  c1351
  c1353
  c1356
  c1357
  c1358
  c1361
  c1363
  c1364
  c1366
  c1367
  c1369
  c1372
  c1373
  c1374
  c1375
  c1376
  c1377
  c1378
  c138
  c1386
  c1387
  c1388
  c1389
  c139
  c1395
  c1397
  c1399
  c1402
  c1405
  c1407
  c1408
  c141
  c1412
  c1415
  c1417
  c1418
  c1421
  c1424
  c1426
  c1429
  c1430
  c1434
  c1436
  c1437
  c1439
  c1440
  c1442
  c1445
  c1446
  c1447
  c1448
  c1449
  c1450
  c1451
  c1459
  c1460
  c1461
  c1462
  c1468
  c1470
  c1471
  c1472
  c1475
  c1479
  c1480
  c1481
  c1485
  c1488
  c1490
  c1491
  c1493
  c1494
  c1497
  c1499
  c15
  c1502
  c1503
  c1504
  c1507
  c1509
  c151
  c1510
  c1512
  c1513
  c1515
  c1518
  c1519
  c1520
  c1521
  c1522
  c1523
  c1524
  c1532
  c1533
  c154
  c1540
  c1544
  c1548
  c1552
  c1556
  c1560
  c1561
  c1562
  c1563
  c1564
  c1567
  c1569
  c1570
  c1577
  c1579
  c1580
  c1588
  c1589
  c159
  c1590
  c1591
  c1592
  c1593
  c1594
  c1595
  c1596
  c1597
  c1598
  c1599
  c160
  c1603
  c1607
  c1611
  c1615
  c1617
  c1618
  c1619
  c1620
  c1623
  c1627
  c1628
  c1630
  c1632
  c1633
  c1637
  c1638
  c1639
  c164
  c1642
  c1643
  c1646
  c1648
  c1649
  c1651
  c1652
  c1657
  c1661
  c1663
  c1665
  c1667
  c1668
  c1669
  c167
  c1670
  c1673
  c1675
  c1676
  c1678
  c1679
  c1681
  c1684
  c1685
  c1686
  c1687
  c1688
  c1689
  c169
  c1690
  c1698
  c1699
  c17
  c170
  c1700
  c1701
  c1703
  c1707
  c1709
  c1711
  c1714
  c1717
  c1719
  c1720
  c1724
  c1727
  c1728
  c1729
  c1730
  c1732
  c1733
  c1736
  c1738
  c1741
  c1742
  c1746
  c1748
  c1749
  c1751
  c1752
  c1754
  c1757
  c1758
  c1759
  c1760
  c1761
  c1762
  c1763
  c1771
  c1772
  c1773
  c1774
  c1777
  c1780
  c1781
  c1782
  c1783
  c1784
  c1787
  c1790
  c1792
  c1793
  c1796
  c1797
  c1800
  c1802
  c1803
  c1805
  c1806
  c1809
  c181
  c1811
  c1813
  c1814
  c1815
  c1819
  c182
  c1821
  c1822
  c1824
  c1825
  c1827
  c183
  c1830
  c1831
  c1832
  c1833
  c1834
  c1835
  c1836
  c1844
  c1845
  c1852
  c1855
  c1856
  c1860
  c1863
  c1864
  c1868
  c1871
  c1872
  c1873
  c1874
  c1875
  c1876
  c1879
  c1881
  c1882
  c1889
  c189
  c1891
  c1892
  c19
  c1900
  c1901
  c1902
  c1903
  c1904
  c1905
  c1906
  c1907
  c1908
  c1909
  c191
  c1910
  c1911
  c1914
  c1915
  c1918
  c1919
  c1923
  c1926
  c1927
  c1929
  c1930
  c1931
  c1932
  c1935
  c1938
  c1940
  c1942
  c1944
  c1945
  c1948
  c1950
  c1951
  c1954
  c1955
  c1958
  c1960
  c1961
  c1963
  c1964
  c1969
  c197
  c1972
  c1973
  c1975
  c1977
  c1979
  c198
  c1980
  c1981
  c1985
  c1987
  c1988
  c199
  c1991
  c1996
  c1997
  c1998
  c1999
  c20
  c2000
  c2001
  c2002
  c201
  c2010
  c2011
  c2012
  c2013
  c2014
  c2016
  c2019
  c202
  c2021
  c2023
  c2025
  c2026
  c2029
  c2030
  c2031
  c2032
  c2033
  c2036
  c2039
  c2041
  c2042
  c2045
  c2048
  c2050
  c2052
  c2053
  c2054
  c2058
  c2060
  c2061
  c2064
  c2069
  c2070
  c2071
  c2072
  c2073
  c2074
  c2075
  c2083
  c2084
  c2085
  c2086
  c2089
  c2092
  c2094
  c2096
  c2098
  c2099
  c21
  c2102
  c2103
  c2104
  c2105
  c2109
  c211
  c2112
  c2114
  c2115
  c2118
  c212
  c2121
  c2123
  c2125
  c2126
  c2127
  c2131
  c2133
  c2134
  c2137
  c214
  c2142
  c2143
  c2144
  c2145
  c2146
  c2147
  c2148
  c2156
  c2157
  c2164
  c2167
  c2168
  c2172
  c2175
  c2176
  c2180
  c2183
  c2184
  c2185
  c2186
  c2187
  c2188
  c2191
  c2193
  c2194
  c2201
  c2203
  c2204
  c2212
  c2213
  c2214
  c2215
  c2216
  c2217
  c2218
  c2219
  c2220
  c2221
  c2222
  c2223
  c2227
  c2230
  c2231
  c2235
  c2238
  c2239
  c224
  c2241
  c2242
  c2243
  c2247
  c2250
  c2252
  c2254
  c2256
  c2257
  c2260
  c2262
  c2263
  c2266
  c2267
  c227
  c2270
  c2272
  c2273
  c2275
  c2276
  c2281
  c2284
  c2285
  c2287
  c2289
  c2291
  c2292
  c2293
  c2297
  c2299
  c23
  c2300
  c2303
  c2308
  c2309
  c2310
  c2311
  c2312
  c2313
  c2314
  c232
  c2322
  c2323
  c2324
  c233
  c2332
  c2334
  c2335
  c2338
  c2342
  c2343
  c2344
  c2345
  c2346
  c2348
  c2351
  c2353
  c2354
  c2356
  c2357
  c2360
  c2362
  c2364
  c2365
  c2366
  c237
  c2370
  c2372
  c2373
  c2376
  c2381
  c2382
  c2383
  c2384
  c2385
  c2386
  c2387
  c2395
  c2396
  c2397
  c240
  c2401
  c2405
  c2406
  c2408
  c2409
  c2411
  c2414
  c2416
  c2417
  c2418
  c242
  c2421
  c2424
  c2426
  c2427
  c2429
  c243
  c2430
  c2433
  c2435
  c2437
  c2438
  c2439
  c2443
  c2445
  c2446
  c2447
  c2454
  c2455
  c2456
  c2457
  c2458
  c2459
  c2460
  c2468
  c2469
  c2476
  c2479
  c2480
  c2484
  c2487
  c2488
  c249
  c2492
  c2495
  c2496
  c2497
  c2499
  c2500
  c2503
  c2505
  c2506
  c2513
  c2515
  c2516
  c2524
  c2525
  c2526
  c2527
  c2528
  c2529
  c2530
  c2531
  c2532
  c2533
  c2534
  c2535
  c2539
  c254
  c2542
  c2543
  c2547
  c255
  c2550
  c2551
  c2553
  c2554
  c2563
  c2564
  c2566
  c2569
  c2573
  c2574
  c2575
  c2578
  c2579
  c2582
  c2585
  c2587
  c2588
  c2593
  c2596
  c2597
  c2599
  c2601
  c2602
  c2604
  c2605
  c2609
  c2611
  c2612
  c2613
  c2614
  c2616
  c262
  c2620
  c2621
  c2622
  c2623
  c2624
  c2625
  c2626
  c2634
  c2635
  c264
  c2644
  c2645
  c2647
  c2650
  c2653
  c2655
  c2656
  c2659
  c2660
  c2665
  c2666
  c2668
  c2669
  c2672
  c2674
  c2675
  c2676
  c2677
  c2678
  c2682
  c2684
  c2685
  c2686
  c2687
  c2689
  c2693
  c2694
  c2695
  c2696
  c2697
  c2698
  c2699
  c270
  c2707
  c2708
  c271
  c2717
  c2718
  c272
  c2720
  c2723
  c2726
  c2728
  c2729
  c2732
  c2733
  c2736
  c2739
  c274
  c2741
  c2742
  c2745
  c2747
  c2748
  c275
  c2750
  c2751
  c2755
  c2757
  c2758
  c2759
  c2760
  c2762
  c2766
  c2767
  c2768
  c2769
  c2770
  c2771
  c2772
  c2780
  c2781
  c2788
  c2791
  c2792
  c2796
  c2799
  c2800
  c2804
  c2807
  c2808
  c2815
  c2817
  c2818
  c2825
  c2827
  c2828
  c2836
  c2837
  c2838
  c2839
  c284
  c2840
  c2841
  c2842
  c2843
  c2844
  c2845
  c2846
  c2847
  c2851
  c2854
  c2855
  c2859
  c2862
  c2863
  c2865
  c2866
  c2875
  c2877
  c2885
  c2886
  c2894
  c2897
  c2899
  c2900
  c2905
  c2908
  c2909
  c2914
  c2916
  c2917
  c292
  c2921
  c2923
  c2924
  c2925
  c2926
  c2928
  c2932
  c2933
  c2934
  c2935
  c2936
  c2937
  c2938
  c2946
  c2947
  c2956
  c2957
  c296
  c2966
  c2967
  c2975
  c2978
  c2980
  c2981
  c2986
  c2987
  c2989
  c2990
  c2994
  c2996
  c2997
  c2998
  c2999
  c30
  c300
  c3001
  c3005
  c3006
  c3007
  c3008
  c3009
  c3010
  c3011
  c3019
  c3020
  c3029
  c3031
  c3039
  c304
  c3040
  c3051
  c3053
  c3054
  c3060
  c3062
  c3063
  c3067
  c3069
  c3070
  c3071
  c3072
  c3074
  c3078
  c3079
  c308
  c3080
  c3081
  c3082
  c3083
  c3084
  c3092
  c3093
  c31
  c3100
  c3103
  c3104
  c3108
  c3111
  c3112
  c3116
  c3119
  c312
  c3120
  c3127
  c3129
  c3130
  c3137
  c3139
  c3140
  c3148
  c3149
  c3150
  c3151
  c3152
  c3153
  c3154
  c3155
  c3156
  c3157
  c3158
  c3159
  c3163
  c3166
  c3167
  c3171
  c3174
  c3175
  c3178
  c3187
  c3197
  c32
  c3206
  c3208
  c3209
  c3211
  c3212
  c3217
  c3220
  c3221
  c3226
  c3233
  c3235
  c3237
  c3238
  c3240
  c3241
  c3244
  c3245
  c3246
  c3247
  c3248
  c3249
  c3250
  c3259
  c3268
  c3278
  c3287
  c3289
  c3290
  c3292
  c3293
  c3298
  c3299
  c33
  c3306
  c3308
  c3310
  c3311
  c3313
  c3314
  c3317
  c3318
  c3319
  c3320
  c3321
  c3322
  c3323
  c3332
  c3341
  c3351
  c3360
  c3362
  c3363
  c3365
  c3366
  c3372
  c3379
  c3383
  c3384
  c3386
  c3387
  c3390
  c3391
  c3392
  c3393
  c3394
  c3395
  c3396
  c34
  c3404
  c3405
  c3412
  c3415
  c3416
  c342
  c3420
  c3423
  c3424
  c3428
  c343
  c3431
  c3432
  c3439
  c344
  c3441
  c3442
  c3449
  c345
  c3451
  c3452
  c346
  c3460
  c3461
  c3462
  c3463
  c3464
  c3465
  c3466
  c3467
  c3468
  c3469
  c347
  c3470
  c3471
  c3475
  c3478
  c3479
  c3483
  c3486
  c3487
  c3490
  c3499
  c35
  c3509
  c351
  c3518
  c3520
  c3529
  c3532
  c3533
  c3538
  c3547
  c3549
  c355
  c3550
  c3551
  c3552
  c3553
  c3556
  c3557
  c3558
  c3559
  c3560
  c3561
  c3562
  c3571
  c3580
  c359
  c3590
  c3599
  c36
  c3601
  c3611
  c3620
  c3622
  c3623
  c3624
  c3625
  c3626
  c3629
  c363
  c3630
  c3631
  c3632
  c3633
  c3634
  c3635
  c3644
  c3653
  c3663
  c367
  c3672
  c3674
  c3684
  c369
  c3693
  c3695
  c3696
  c3697
  c3698
  c3699
  c37
  c370
  c3702
  c3703
  c3704
  c3705
  c3706
  c3707
  c3708
  c3716
  c3717
  c372
  c3724
  c3727
  c3728
  c3732
  c3735
  c3736
  c374
  c3740
  c3743
  c3744
  c3751
  c3753
  c3754
  c3761
  c3763
  c3764
  c3772
  c3773
  c3774
  c3775
  c3776
  c3777
  c3778
  c3779
  c3780
  c3781
  c3782
  c3783
  c3787
  c3791
  c3795
  c3799
  c38
  c3801
  c3811
  c382
  c3821
  c3830
  c3841
  c3845
  c385
  c3850
  c3861
  c3862
  c3863
  c3864
  c3865
  c3868
  c3869
  c3870
  c3872
  c3873
  c3882
  c389
  c3892
  c39
  c390
  c3902
  c391
  c3911
  c3923
  c3934
  c3935
  c3936
  c3937
  c3938
  c3941
  c3942
  c3943
  c3945
  c3946
  c395
  c3955
  c3965
  c3975
  c398
  c3984
  c3996
  c400
  c4007
  c4008
  c4009
  c401
  c4010
  c4011
  c4014
  c4015
  c4016
  c4018
  c4019
  c4028
  c4029
  c403
  c4036
  c404
  c4044
  c4048
  c4052
  c4056
  c4057
  c4058
  c4063
  c4065
  c4073
  c4075
  c4076
  c4084
  c4085
  c4086
  c4087
  c4088
  c4089
  c409
  c4091
  c4092
  c4093
  c4094
  c4095
  c4114
  c4124
  c413
  c4134
  c4144
  c415
  c4162
  c4171
  c4180
  c4195
  c420
  c4205
  c421
  c4215
  c4225
  c4235
  c4244
  c4253
  c4268
  c4278
  c428
  c4288
  c4298
  c43
  c430
  c4308
  c4317
  c4326
  c433
  c4340
  c4348
  c4352
  c4356
  c436
  c4360
  c4364
  c4368
  c437
  c4373
  c4375
  c4377
  c4378
  c438
  c4397
  c4398
  c4399
  c440
  c4400
  c4401
  c4402
  c4403
  c4404
  c4405
  c4406
  c4407
  c4409
  c441
  c4413
  c4417
  c4420
  c4424
  c4428
  c4433
  c4437
  c4441
  c4445
  c4449
  c4453
  c4456
  c4457
  c4460
  c4461
  c4464
  c4465
  c4468
  c4469
  c4472
  c4473
  c4476
  c4477
  c4480
  c4481
  c4482
  c4484
  c4485
  c4486
  c4488
  c4489
  c4490
  c4492
  c4493
  c4494
  c4496
  c4497
  c4498
  c450
  c4500
  c4501
  c4502
  c4504
  c4505
  c4506
  c4508
  c4509
  c4510
  c4512
  c4513
  c4514
  c4516
  c4517
  c4518
  c4520
  c4521
  c4522
  c4524
  c4525
  c4526
  c4528
  c4529
  c453
  c4530
  c4532
  c4533
  c4534
  c4536
  c4537
  c4538
  c4540
  c4541
  c4542
  c4544
  c4545
  c4546
  c4548
  c4549
  c455
  c4550
  c4552
  c4553
  c4554
  c4556
  c4557
  c4558
  c4560
  c4561
  c4562
  c4564
  c4565
  c4566
  c4568
  c4569
  c4570
  c4572
  c4573
  c4574
  c4576
  c4577
  c4578
  c4579
  c4580
  c4581
  c4582
  c4583
  c4585
  c4586
  c4587
  c4588
  c4589
  c4591
  c4594
  c4595
  c4597
  c463
  c466
  c47
  c470
  c471
  c472
  c476
  c479
  c482
  c484
  c485
  c493
  c494
  c495
  c501
  c503
  c506
  c509
  c51
  c510
  c511
  c512
  c513
  c514
  c515
  c523
  c526
  c528
  c536
  c539
  c543
  c544
  c545
  c549
  c55
  c552
  c555
  c557
  c558
  c561
  c566
  c567
  c57
  c574
  c576
  c579
  c58
  c582
  c583
  c584
  c585
  c586
  c587
  c588
  c596
  c597
  c60
  c604
  c608
  c612
  c616
  c620
  c624
  c631
  c643
  c652
  c653
  c654
  c655
  c656
  c657
  c658
  c659
  c662
  c663
  c667
  c671
  c675
  c679
  c681
  c682
  c684
  c693
  c694
  c697
  c70
  c701
  c702
  c703
  c707
  c710
  c712
  c713
  c715
  c716
  c721
  c725
  c727
  c728
  c73
  c732
  c733
  c734
  c740
  c742
  c745
  c748
  c749
  c750
  c751
  c752
  c753
  c754
  c762
  c763
  c765
  c774
  c775
  c778
  c78
  c781
  c782
  c783
  c784
  c788
  c79
  c791
  c794
  c796
  c797
  c801
  c805
  c806
  c807
  c813
  c815
  c818
  c821
  c822
  c823
  c824
  c825
  c826
  c827
  c83
  c835
  c836
  c838
  c845
  c846
  c848
  c851
  c855
  c856
  c857
  c86
  c860
  c861
  c864
  c867
  c869
  c870
  c875
  c878
  c879
  c88
  c880
  c886
  c888
  c89
  c891
  c894
  c895
  c896
  c897
  c898
  c899
  c900
  c908
  c909
  c916
  c920
  c924
  c928
  c932
  c936
  c938
  c939
  c940
  c941
  c943
  c945
  c955
  c956
  c964
  c965
  c966
  c967
  c968
  c969
  c97
  c970
  c971
  c972
  c973
  c974
  c975
  c979
  c983
  c987
  c991
  c993
  c994
  c996 )
